min_signal_strength = 5;
TOWER = {t0, t1, t2, t3, t4, t5, t6, t7, t8, t9};
HANDSET = {h0, h1, h2, h3, h4, h5, h6, h7, h8, h9, h10, h11, h12, h13, h14, h15, h16, h17, h18, h19, h20, h21, h22, h23, h24, h25, h26, h27, h28, h29, h30, h31, h32, h33, h34, h35, h36, h37, h38, h39, h40, h41, h42, h43, h44, h45, h46, h47, h48, h49};
distance = distance = [|22.47, 26.63, 18.44, 7.07, 32.28, 28.23, 37.16, 11.70, 15.00, 28.23
    |35.69, 31.05, 3.00, 17.00, 16.76, 11.40, 19.03, 31.62, 5.83, 27.31
    |21.02, 44.05, 43.83, 29.00, 53.82, 51.09, 59.82, 18.11, 39.82, 40.52
    |34.48, 34.48, 6.32]; // array too long to display, dimensions: (451)

demand = [14, 43, 30, 24, 85, 67, 77, 58, 56, 13, 2, 79, 89, 29, 79, 86, 44, 59, 41, 67, 16, 99, 74, 22, 68, 4, 34, 79, 29, 29, 25, 13, 60, 26, 68, 22, 92, 63, 24, 84, 21, 40, 20, 99, 13, 7, 77, 81, 63, 10];
capacity = [300, 300, 300, 300, 300, 300, 300, 300, 300, 300];
